p cnf 209 2356
90 115 140 0
-90 -115 0
-90 -140 0
-115 -140 0
9 33 58 75 81 103 110 149 203 0
-9 -33 0
-9 -58 0
-9 -75 0
-9 -81 0
-9 -103 0
-9 -110 0
-9 -149 0
-9 -203 0
-33 -58 0
-33 -75 0
-33 -81 0
-33 -103 0
-33 -110 0
-33 -149 0
-33 -203 0
-58 -75 0
-58 -81 0
-58 -103 0
-58 -110 0
-58 -149 0
-58 -203 0
-75 -81 0
-75 -103 0
-75 -110 0
-75 -149 0
-75 -203 0
-81 -103 0
-81 -110 0
-81 -149 0
-81 -203 0
-103 -110 0
-103 -149 0
-103 -203 0
-110 -149 0
-110 -203 0
-149 -203 0
20 23 35 78 102 114 119 0
-20 -23 0
-20 -35 0
-20 -78 0
-20 -102 0
-20 -114 0
-20 -119 0
-23 -35 0
-23 -78 0
-23 -102 0
-23 -114 0
-23 -119 0
-35 -78 0
-35 -102 0
-35 -114 0
-35 -119 0
-78 -102 0
-78 -114 0
-78 -119 0
-102 -114 0
-102 -119 0
-114 -119 0
110 157 161 180 209 0
-110 -157 0
-110 -161 0
-110 -180 0
-110 -209 0
-157 -161 0
-157 -180 0
-157 -209 0
-161 -180 0
-161 -209 0
-180 -209 0
79 100 121 123 137 148 152 183 0
-79 -100 0
-79 -121 0
-79 -123 0
-79 -137 0
-79 -148 0
-79 -152 0
-79 -183 0
-100 -121 0
-100 -123 0
-100 -137 0
-100 -148 0
-100 -152 0
-100 -183 0
-121 -123 0
-121 -137 0
-121 -148 0
-121 -152 0
-121 -183 0
-123 -137 0
-123 -148 0
-123 -152 0
-123 -183 0
-137 -148 0
-137 -152 0
-137 -183 0
-148 -152 0
-148 -183 0
-152 -183 0
6 33 50 70 74 78 99 107 108 112 116 127 160 171 173 179 182 185 0
-6 -33 0
-6 -50 0
-6 -70 0
-6 -74 0
-6 -78 0
-6 -99 0
-6 -107 0
-6 -108 0
-6 -112 0
-6 -116 0
-6 -127 0
-6 -160 0
-6 -171 0
-6 -173 0
-6 -179 0
-6 -182 0
-6 -185 0
-33 -50 0
-33 -70 0
-33 -74 0
-33 -78 0
-33 -99 0
-33 -107 0
-33 -108 0
-33 -112 0
-33 -116 0
-33 -127 0
-33 -160 0
-33 -171 0
-33 -173 0
-33 -179 0
-33 -182 0
-33 -185 0
-50 -70 0
-50 -74 0
-50 -78 0
-50 -99 0
-50 -107 0
-50 -108 0
-50 -112 0
-50 -116 0
-50 -127 0
-50 -160 0
-50 -171 0
-50 -173 0
-50 -179 0
-50 -182 0
-50 -185 0
-70 -74 0
-70 -78 0
-70 -99 0
-70 -107 0
-70 -108 0
-70 -112 0
-70 -116 0
-70 -127 0
-70 -160 0
-70 -171 0
-70 -173 0
-70 -179 0
-70 -182 0
-70 -185 0
-74 -78 0
-74 -99 0
-74 -107 0
-74 -108 0
-74 -112 0
-74 -116 0
-74 -127 0
-74 -160 0
-74 -171 0
-74 -173 0
-74 -179 0
-74 -182 0
-74 -185 0
-78 -99 0
-78 -107 0
-78 -108 0
-78 -112 0
-78 -116 0
-78 -127 0
-78 -160 0
-78 -171 0
-78 -173 0
-78 -179 0
-78 -182 0
-78 -185 0
-99 -107 0
-99 -108 0
-99 -112 0
-99 -116 0
-99 -127 0
-99 -160 0
-99 -171 0
-99 -173 0
-99 -179 0
-99 -182 0
-99 -185 0
-107 -108 0
-107 -112 0
-107 -116 0
-107 -127 0
-107 -160 0
-107 -171 0
-107 -173 0
-107 -179 0
-107 -182 0
-107 -185 0
-108 -112 0
-108 -116 0
-108 -127 0
-108 -160 0
-108 -171 0
-108 -173 0
-108 -179 0
-108 -182 0
-108 -185 0
-112 -116 0
-112 -127 0
-112 -160 0
-112 -171 0
-112 -173 0
-112 -179 0
-112 -182 0
-112 -185 0
-116 -127 0
-116 -160 0
-116 -171 0
-116 -173 0
-116 -179 0
-116 -182 0
-116 -185 0
-127 -160 0
-127 -171 0
-127 -173 0
-127 -179 0
-127 -182 0
-127 -185 0
-160 -171 0
-160 -173 0
-160 -179 0
-160 -182 0
-160 -185 0
-171 -173 0
-171 -179 0
-171 -182 0
-171 -185 0
-173 -179 0
-173 -182 0
-173 -185 0
-179 -182 0
-179 -185 0
-182 -185 0
36 39 62 63 104 145 156 0
-36 -39 0
-36 -62 0
-36 -63 0
-36 -104 0
-36 -145 0
-36 -156 0
-39 -62 0
-39 -63 0
-39 -104 0
-39 -145 0
-39 -156 0
-62 -63 0
-62 -104 0
-62 -145 0
-62 -156 0
-63 -104 0
-63 -145 0
-63 -156 0
-104 -145 0
-104 -156 0
-145 -156 0
2 3 6 10 19 42 60 97 129 130 145 0
-2 -3 0
-2 -6 0
-2 -10 0
-2 -19 0
-2 -42 0
-2 -60 0
-2 -97 0
-2 -129 0
-2 -130 0
-2 -145 0
-3 -6 0
-3 -10 0
-3 -19 0
-3 -42 0
-3 -60 0
-3 -97 0
-3 -129 0
-3 -130 0
-3 -145 0
-6 -10 0
-6 -19 0
-6 -42 0
-6 -60 0
-6 -97 0
-6 -129 0
-6 -130 0
-6 -145 0
-10 -19 0
-10 -42 0
-10 -60 0
-10 -97 0
-10 -129 0
-10 -130 0
-10 -145 0
-19 -42 0
-19 -60 0
-19 -97 0
-19 -129 0
-19 -130 0
-19 -145 0
-42 -60 0
-42 -97 0
-42 -129 0
-42 -130 0
-42 -145 0
-60 -97 0
-60 -129 0
-60 -130 0
-60 -145 0
-97 -129 0
-97 -130 0
-97 -145 0
-129 -130 0
-129 -145 0
-130 -145 0
34 46 89 99 166 170 172 204 0
-34 -46 0
-34 -89 0
-34 -99 0
-34 -166 0
-34 -170 0
-34 -172 0
-34 -204 0
-46 -89 0
-46 -99 0
-46 -166 0
-46 -170 0
-46 -172 0
-46 -204 0
-89 -99 0
-89 -166 0
-89 -170 0
-89 -172 0
-89 -204 0
-99 -166 0
-99 -170 0
-99 -172 0
-99 -204 0
-166 -170 0
-166 -172 0
-166 -204 0
-170 -172 0
-170 -204 0
-172 -204 0
45 86 113 115 137 147 172 181 188 0
-45 -86 0
-45 -113 0
-45 -115 0
-45 -137 0
-45 -147 0
-45 -172 0
-45 -181 0
-45 -188 0
-86 -113 0
-86 -115 0
-86 -137 0
-86 -147 0
-86 -172 0
-86 -181 0
-86 -188 0
-113 -115 0
-113 -137 0
-113 -147 0
-113 -172 0
-113 -181 0
-113 -188 0
-115 -137 0
-115 -147 0
-115 -172 0
-115 -181 0
-115 -188 0
-137 -147 0
-137 -172 0
-137 -181 0
-137 -188 0
-147 -172 0
-147 -181 0
-147 -188 0
-172 -181 0
-172 -188 0
-181 -188 0
83 0
29 82 85 124 131 0
-29 -82 0
-29 -85 0
-29 -124 0
-29 -131 0
-82 -85 0
-82 -124 0
-82 -131 0
-85 -124 0
-85 -131 0
-124 -131 0
25 96 119 126 135 138 146 185 0
-25 -96 0
-25 -119 0
-25 -126 0
-25 -135 0
-25 -138 0
-25 -146 0
-25 -185 0
-96 -119 0
-96 -126 0
-96 -135 0
-96 -138 0
-96 -146 0
-96 -185 0
-119 -126 0
-119 -135 0
-119 -138 0
-119 -146 0
-119 -185 0
-126 -135 0
-126 -138 0
-126 -146 0
-126 -185 0
-135 -138 0
-135 -146 0
-135 -185 0
-138 -146 0
-138 -185 0
-146 -185 0
20 23 43 49 56 105 107 138 150 163 178 194 0
-20 -23 0
-20 -43 0
-20 -49 0
-20 -56 0
-20 -105 0
-20 -107 0
-20 -138 0
-20 -150 0
-20 -163 0
-20 -178 0
-20 -194 0
-23 -43 0
-23 -49 0
-23 -56 0
-23 -105 0
-23 -107 0
-23 -138 0
-23 -150 0
-23 -163 0
-23 -178 0
-23 -194 0
-43 -49 0
-43 -56 0
-43 -105 0
-43 -107 0
-43 -138 0
-43 -150 0
-43 -163 0
-43 -178 0
-43 -194 0
-49 -56 0
-49 -105 0
-49 -107 0
-49 -138 0
-49 -150 0
-49 -163 0
-49 -178 0
-49 -194 0
-56 -105 0
-56 -107 0
-56 -138 0
-56 -150 0
-56 -163 0
-56 -178 0
-56 -194 0
-105 -107 0
-105 -138 0
-105 -150 0
-105 -163 0
-105 -178 0
-105 -194 0
-107 -138 0
-107 -150 0
-107 -163 0
-107 -178 0
-107 -194 0
-138 -150 0
-138 -163 0
-138 -178 0
-138 -194 0
-150 -163 0
-150 -178 0
-150 -194 0
-163 -178 0
-163 -194 0
-178 -194 0
18 54 56 57 70 113 206 0
-18 -54 0
-18 -56 0
-18 -57 0
-18 -70 0
-18 -113 0
-18 -206 0
-54 -56 0
-54 -57 0
-54 -70 0
-54 -113 0
-54 -206 0
-56 -57 0
-56 -70 0
-56 -113 0
-56 -206 0
-57 -70 0
-57 -113 0
-57 -206 0
-70 -113 0
-70 -206 0
-113 -206 0
4 94 97 105 118 149 161 0
-4 -94 0
-4 -97 0
-4 -105 0
-4 -118 0
-4 -149 0
-4 -161 0
-94 -97 0
-94 -105 0
-94 -118 0
-94 -149 0
-94 -161 0
-97 -105 0
-97 -118 0
-97 -149 0
-97 -161 0
-105 -118 0
-105 -149 0
-105 -161 0
-118 -149 0
-118 -161 0
-149 -161 0
34 41 50 125 139 184 195 0
-34 -41 0
-34 -50 0
-34 -125 0
-34 -139 0
-34 -184 0
-34 -195 0
-41 -50 0
-41 -125 0
-41 -139 0
-41 -184 0
-41 -195 0
-50 -125 0
-50 -139 0
-50 -184 0
-50 -195 0
-125 -139 0
-125 -184 0
-125 -195 0
-139 -184 0
-139 -195 0
-184 -195 0
24 32 88 90 94 107 108 180 188 190 198 0
-24 -32 0
-24 -88 0
-24 -90 0
-24 -94 0
-24 -107 0
-24 -108 0
-24 -180 0
-24 -188 0
-24 -190 0
-24 -198 0
-32 -88 0
-32 -90 0
-32 -94 0
-32 -107 0
-32 -108 0
-32 -180 0
-32 -188 0
-32 -190 0
-32 -198 0
-88 -90 0
-88 -94 0
-88 -107 0
-88 -108 0
-88 -180 0
-88 -188 0
-88 -190 0
-88 -198 0
-90 -94 0
-90 -107 0
-90 -108 0
-90 -180 0
-90 -188 0
-90 -190 0
-90 -198 0
-94 -107 0
-94 -108 0
-94 -180 0
-94 -188 0
-94 -190 0
-94 -198 0
-107 -108 0
-107 -180 0
-107 -188 0
-107 -190 0
-107 -198 0
-108 -180 0
-108 -188 0
-108 -190 0
-108 -198 0
-180 -188 0
-180 -190 0
-180 -198 0
-188 -190 0
-188 -198 0
-190 -198 0
14 45 60 76 80 111 124 142 176 0
-14 -45 0
-14 -60 0
-14 -76 0
-14 -80 0
-14 -111 0
-14 -124 0
-14 -142 0
-14 -176 0
-45 -60 0
-45 -76 0
-45 -80 0
-45 -111 0
-45 -124 0
-45 -142 0
-45 -176 0
-60 -76 0
-60 -80 0
-60 -111 0
-60 -124 0
-60 -142 0
-60 -176 0
-76 -80 0
-76 -111 0
-76 -124 0
-76 -142 0
-76 -176 0
-80 -111 0
-80 -124 0
-80 -142 0
-80 -176 0
-111 -124 0
-111 -142 0
-111 -176 0
-124 -142 0
-124 -176 0
-142 -176 0
26 37 49 56 60 67 103 114 128 161 0
-26 -37 0
-26 -49 0
-26 -56 0
-26 -60 0
-26 -67 0
-26 -103 0
-26 -114 0
-26 -128 0
-26 -161 0
-37 -49 0
-37 -56 0
-37 -60 0
-37 -67 0
-37 -103 0
-37 -114 0
-37 -128 0
-37 -161 0
-49 -56 0
-49 -60 0
-49 -67 0
-49 -103 0
-49 -114 0
-49 -128 0
-49 -161 0
-56 -60 0
-56 -67 0
-56 -103 0
-56 -114 0
-56 -128 0
-56 -161 0
-60 -67 0
-60 -103 0
-60 -114 0
-60 -128 0
-60 -161 0
-67 -103 0
-67 -114 0
-67 -128 0
-67 -161 0
-103 -114 0
-103 -128 0
-103 -161 0
-114 -128 0
-114 -161 0
-128 -161 0
4 16 48 54 61 92 96 129 132 150 0
-4 -16 0
-4 -48 0
-4 -54 0
-4 -61 0
-4 -92 0
-4 -96 0
-4 -129 0
-4 -132 0
-4 -150 0
-16 -48 0
-16 -54 0
-16 -61 0
-16 -92 0
-16 -96 0
-16 -129 0
-16 -132 0
-16 -150 0
-48 -54 0
-48 -61 0
-48 -92 0
-48 -96 0
-48 -129 0
-48 -132 0
-48 -150 0
-54 -61 0
-54 -92 0
-54 -96 0
-54 -129 0
-54 -132 0
-54 -150 0
-61 -92 0
-61 -96 0
-61 -129 0
-61 -132 0
-61 -150 0
-92 -96 0
-92 -129 0
-92 -132 0
-92 -150 0
-96 -129 0
-96 -132 0
-96 -150 0
-129 -132 0
-129 -150 0
-132 -150 0
9 26 39 112 175 0
-9 -26 0
-9 -39 0
-9 -112 0
-9 -175 0
-26 -39 0
-26 -112 0
-26 -175 0
-39 -112 0
-39 -175 0
-112 -175 0
31 64 131 138 0
-31 -64 0
-31 -131 0
-31 -138 0
-64 -131 0
-64 -138 0
-131 -138 0
8 141 146 156 0
-8 -141 0
-8 -146 0
-8 -156 0
-141 -146 0
-141 -156 0
-146 -156 0
84 102 125 136 150 168 174 0
-84 -102 0
-84 -125 0
-84 -136 0
-84 -150 0
-84 -168 0
-84 -174 0
-102 -125 0
-102 -136 0
-102 -150 0
-102 -168 0
-102 -174 0
-125 -136 0
-125 -150 0
-125 -168 0
-125 -174 0
-136 -150 0
-136 -168 0
-136 -174 0
-150 -168 0
-150 -174 0
-168 -174 0
28 120 136 165 181 0
-28 -120 0
-28 -136 0
-28 -165 0
-28 -181 0
-120 -136 0
-120 -165 0
-120 -181 0
-136 -165 0
-136 -181 0
-165 -181 0
101 130 157 178 0
-101 -130 0
-101 -157 0
-101 -178 0
-130 -157 0
-130 -178 0
-157 -178 0
40 42 44 50 53 72 100 160 0
-40 -42 0
-40 -44 0
-40 -50 0
-40 -53 0
-40 -72 0
-40 -100 0
-40 -160 0
-42 -44 0
-42 -50 0
-42 -53 0
-42 -72 0
-42 -100 0
-42 -160 0
-44 -50 0
-44 -53 0
-44 -72 0
-44 -100 0
-44 -160 0
-50 -53 0
-50 -72 0
-50 -100 0
-50 -160 0
-53 -72 0
-53 -100 0
-53 -160 0
-72 -100 0
-72 -160 0
-100 -160 0
81 118 159 186 199 203 0
-81 -118 0
-81 -159 0
-81 -186 0
-81 -199 0
-81 -203 0
-118 -159 0
-118 -186 0
-118 -199 0
-118 -203 0
-159 -186 0
-159 -199 0
-159 -203 0
-186 -199 0
-186 -203 0
-199 -203 0
1 15 58 66 69 147 157 158 173 0
-1 -15 0
-1 -58 0
-1 -66 0
-1 -69 0
-1 -147 0
-1 -157 0
-1 -158 0
-1 -173 0
-15 -58 0
-15 -66 0
-15 -69 0
-15 -147 0
-15 -157 0
-15 -158 0
-15 -173 0
-58 -66 0
-58 -69 0
-58 -147 0
-58 -157 0
-58 -158 0
-58 -173 0
-66 -69 0
-66 -147 0
-66 -157 0
-66 -158 0
-66 -173 0
-69 -147 0
-69 -157 0
-69 -158 0
-69 -173 0
-147 -157 0
-147 -158 0
-147 -173 0
-157 -158 0
-157 -173 0
-158 -173 0
74 88 182 0
-74 -88 0
-74 -182 0
-88 -182 0
24 102 117 143 155 166 200 0
-24 -102 0
-24 -117 0
-24 -143 0
-24 -155 0
-24 -166 0
-24 -200 0
-102 -117 0
-102 -143 0
-102 -155 0
-102 -166 0
-102 -200 0
-117 -143 0
-117 -155 0
-117 -166 0
-117 -200 0
-143 -155 0
-143 -166 0
-143 -200 0
-155 -166 0
-155 -200 0
-166 -200 0
11 19 35 47 52 0
-11 -19 0
-11 -35 0
-11 -47 0
-11 -52 0
-19 -35 0
-19 -47 0
-19 -52 0
-35 -47 0
-35 -52 0
-47 -52 0
24 32 58 0
-24 -32 0
-24 -58 0
-32 -58 0
38 40 119 122 144 154 162 168 183 194 0
-38 -40 0
-38 -119 0
-38 -122 0
-38 -144 0
-38 -154 0
-38 -162 0
-38 -168 0
-38 -183 0
-38 -194 0
-40 -119 0
-40 -122 0
-40 -144 0
-40 -154 0
-40 -162 0
-40 -168 0
-40 -183 0
-40 -194 0
-119 -122 0
-119 -144 0
-119 -154 0
-119 -162 0
-119 -168 0
-119 -183 0
-119 -194 0
-122 -144 0
-122 -154 0
-122 -162 0
-122 -168 0
-122 -183 0
-122 -194 0
-144 -154 0
-144 -162 0
-144 -168 0
-144 -183 0
-144 -194 0
-154 -162 0
-154 -168 0
-154 -183 0
-154 -194 0
-162 -168 0
-162 -183 0
-162 -194 0
-168 -183 0
-168 -194 0
-183 -194 0
36 48 59 64 68 120 177 207 208 0
-36 -48 0
-36 -59 0
-36 -64 0
-36 -68 0
-36 -120 0
-36 -177 0
-36 -207 0
-36 -208 0
-48 -59 0
-48 -64 0
-48 -68 0
-48 -120 0
-48 -177 0
-48 -207 0
-48 -208 0
-59 -64 0
-59 -68 0
-59 -120 0
-59 -177 0
-59 -207 0
-59 -208 0
-64 -68 0
-64 -120 0
-64 -177 0
-64 -207 0
-64 -208 0
-68 -120 0
-68 -177 0
-68 -207 0
-68 -208 0
-120 -177 0
-120 -207 0
-120 -208 0
-177 -207 0
-177 -208 0
-207 -208 0
7 9 13 22 36 47 77 170 192 0
-7 -9 0
-7 -13 0
-7 -22 0
-7 -36 0
-7 -47 0
-7 -77 0
-7 -170 0
-7 -192 0
-9 -13 0
-9 -22 0
-9 -36 0
-9 -47 0
-9 -77 0
-9 -170 0
-9 -192 0
-13 -22 0
-13 -36 0
-13 -47 0
-13 -77 0
-13 -170 0
-13 -192 0
-22 -36 0
-22 -47 0
-22 -77 0
-22 -170 0
-22 -192 0
-36 -47 0
-36 -77 0
-36 -170 0
-36 -192 0
-47 -77 0
-47 -170 0
-47 -192 0
-77 -170 0
-77 -192 0
-170 -192 0
61 95 104 153 159 0
-61 -95 0
-61 -104 0
-61 -153 0
-61 -159 0
-95 -104 0
-95 -153 0
-95 -159 0
-104 -153 0
-104 -159 0
-153 -159 0
4 49 62 69 74 81 198 0
-4 -49 0
-4 -62 0
-4 -69 0
-4 -74 0
-4 -81 0
-4 -198 0
-49 -62 0
-49 -69 0
-49 -74 0
-49 -81 0
-49 -198 0
-62 -69 0
-62 -74 0
-62 -81 0
-62 -198 0
-69 -74 0
-69 -81 0
-69 -198 0
-74 -81 0
-74 -198 0
-81 -198 0
61 65 69 73 79 93 122 169 175 199 0
-61 -65 0
-61 -69 0
-61 -73 0
-61 -79 0
-61 -93 0
-61 -122 0
-61 -169 0
-61 -175 0
-61 -199 0
-65 -69 0
-65 -73 0
-65 -79 0
-65 -93 0
-65 -122 0
-65 -169 0
-65 -175 0
-65 -199 0
-69 -73 0
-69 -79 0
-69 -93 0
-69 -122 0
-69 -169 0
-69 -175 0
-69 -199 0
-73 -79 0
-73 -93 0
-73 -122 0
-73 -169 0
-73 -175 0
-73 -199 0
-79 -93 0
-79 -122 0
-79 -169 0
-79 -175 0
-79 -199 0
-93 -122 0
-93 -169 0
-93 -175 0
-93 -199 0
-122 -169 0
-122 -175 0
-122 -199 0
-169 -175 0
-169 -199 0
-175 -199 0
39 71 91 95 0
-39 -71 0
-39 -91 0
-39 -95 0
-71 -91 0
-71 -95 0
-91 -95 0
5 26 76 82 106 115 136 189 207 0
-5 -26 0
-5 -76 0
-5 -82 0
-5 -106 0
-5 -115 0
-5 -136 0
-5 -189 0
-5 -207 0
-26 -76 0
-26 -82 0
-26 -106 0
-26 -115 0
-26 -136 0
-26 -189 0
-26 -207 0
-76 -82 0
-76 -106 0
-76 -115 0
-76 -136 0
-76 -189 0
-76 -207 0
-82 -106 0
-82 -115 0
-82 -136 0
-82 -189 0
-82 -207 0
-106 -115 0
-106 -136 0
-106 -189 0
-106 -207 0
-115 -136 0
-115 -189 0
-115 -207 0
-136 -189 0
-136 -207 0
-189 -207 0
11 30 34 55 73 83 105 171 0
-11 -30 0
-11 -34 0
-11 -55 0
-11 -73 0
-11 -83 0
-11 -105 0
-11 -171 0
-30 -34 0
-30 -55 0
-30 -73 0
-30 -83 0
-30 -105 0
-30 -171 0
-34 -55 0
-34 -73 0
-34 -83 0
-34 -105 0
-34 -171 0
-55 -73 0
-55 -83 0
-55 -105 0
-55 -171 0
-73 -83 0
-73 -105 0
-73 -171 0
-83 -105 0
-83 -171 0
-105 -171 0
25 35 101 134 143 0
-25 -35 0
-25 -101 0
-25 -134 0
-25 -143 0
-35 -101 0
-35 -134 0
-35 -143 0
-101 -134 0
-101 -143 0
-134 -143 0
15 28 77 121 131 141 185 201 205 0
-15 -28 0
-15 -77 0
-15 -121 0
-15 -131 0
-15 -141 0
-15 -185 0
-15 -201 0
-15 -205 0
-28 -77 0
-28 -121 0
-28 -131 0
-28 -141 0
-28 -185 0
-28 -201 0
-28 -205 0
-77 -121 0
-77 -131 0
-77 -141 0
-77 -185 0
-77 -201 0
-77 -205 0
-121 -131 0
-121 -141 0
-121 -185 0
-121 -201 0
-121 -205 0
-131 -141 0
-131 -185 0
-131 -201 0
-131 -205 0
-141 -185 0
-141 -201 0
-141 -205 0
-185 -201 0
-185 -205 0
-201 -205 0
29 30 79 95 129 141 187 191 0
-29 -30 0
-29 -79 0
-29 -95 0
-29 -129 0
-29 -141 0
-29 -187 0
-29 -191 0
-30 -79 0
-30 -95 0
-30 -129 0
-30 -141 0
-30 -187 0
-30 -191 0
-79 -95 0
-79 -129 0
-79 -141 0
-79 -187 0
-79 -191 0
-95 -129 0
-95 -141 0
-95 -187 0
-95 -191 0
-129 -141 0
-129 -187 0
-129 -191 0
-141 -187 0
-141 -191 0
-187 -191 0
31 33 46 47 71 89 0
-31 -33 0
-31 -46 0
-31 -47 0
-31 -71 0
-31 -89 0
-33 -46 0
-33 -47 0
-33 -71 0
-33 -89 0
-46 -47 0
-46 -71 0
-46 -89 0
-47 -71 0
-47 -89 0
-71 -89 0
30 45 48 113 117 144 180 200 201 0
-30 -45 0
-30 -48 0
-30 -113 0
-30 -117 0
-30 -144 0
-30 -180 0
-30 -200 0
-30 -201 0
-45 -48 0
-45 -113 0
-45 -117 0
-45 -144 0
-45 -180 0
-45 -200 0
-45 -201 0
-48 -113 0
-48 -117 0
-48 -144 0
-48 -180 0
-48 -200 0
-48 -201 0
-113 -117 0
-113 -144 0
-113 -180 0
-113 -200 0
-113 -201 0
-117 -144 0
-117 -180 0
-117 -200 0
-117 -201 0
-144 -180 0
-144 -200 0
-144 -201 0
-180 -200 0
-180 -201 0
-200 -201 0
2 7 12 22 93 112 121 196 0
-2 -7 0
-2 -12 0
-2 -22 0
-2 -93 0
-2 -112 0
-2 -121 0
-2 -196 0
-7 -12 0
-7 -22 0
-7 -93 0
-7 -112 0
-7 -121 0
-7 -196 0
-12 -22 0
-12 -93 0
-12 -112 0
-12 -121 0
-12 -196 0
-22 -93 0
-22 -112 0
-22 -121 0
-22 -196 0
-93 -112 0
-93 -121 0
-93 -196 0
-112 -121 0
-112 -196 0
-121 -196 0
27 28 100 133 140 164 177 197 0
-27 -28 0
-27 -100 0
-27 -133 0
-27 -140 0
-27 -164 0
-27 -177 0
-27 -197 0
-28 -100 0
-28 -133 0
-28 -140 0
-28 -164 0
-28 -177 0
-28 -197 0
-100 -133 0
-100 -140 0
-100 -164 0
-100 -177 0
-100 -197 0
-133 -140 0
-133 -164 0
-133 -177 0
-133 -197 0
-140 -164 0
-140 -177 0
-140 -197 0
-164 -177 0
-164 -197 0
-177 -197 0
111 151 176 0
-111 -151 0
-111 -176 0
-151 -176 0
8 37 43 71 126 144 0
-8 -37 0
-8 -43 0
-8 -71 0
-8 -126 0
-8 -144 0
-37 -43 0
-37 -71 0
-37 -126 0
-37 -144 0
-43 -71 0
-43 -126 0
-43 -144 0
-71 -126 0
-71 -144 0
-126 -144 0
14 53 110 158 204 0
-14 -53 0
-14 -110 0
-14 -158 0
-14 -204 0
-53 -110 0
-53 -158 0
-53 -204 0
-110 -158 0
-110 -204 0
-158 -204 0
17 51 65 66 104 159 168 203 204 0
-17 -51 0
-17 -65 0
-17 -66 0
-17 -104 0
-17 -159 0
-17 -168 0
-17 -203 0
-17 -204 0
-51 -65 0
-51 -66 0
-51 -104 0
-51 -159 0
-51 -168 0
-51 -203 0
-51 -204 0
-65 -66 0
-65 -104 0
-65 -159 0
-65 -168 0
-65 -203 0
-65 -204 0
-66 -104 0
-66 -159 0
-66 -168 0
-66 -203 0
-66 -204 0
-104 -159 0
-104 -168 0
-104 -203 0
-104 -204 0
-159 -168 0
-159 -203 0
-159 -204 0
-168 -203 0
-168 -204 0
-203 -204 0
20 27 38 54 76 123 193 202 0
-20 -27 0
-20 -38 0
-20 -54 0
-20 -76 0
-20 -123 0
-20 -193 0
-20 -202 0
-27 -38 0
-27 -54 0
-27 -76 0
-27 -123 0
-27 -193 0
-27 -202 0
-38 -54 0
-38 -76 0
-38 -123 0
-38 -193 0
-38 -202 0
-54 -76 0
-54 -123 0
-54 -193 0
-54 -202 0
-76 -123 0
-76 -193 0
-76 -202 0
-123 -193 0
-123 -202 0
-193 -202 0
2 22 62 72 97 178 0
-2 -22 0
-2 -62 0
-2 -72 0
-2 -97 0
-2 -178 0
-22 -62 0
-22 -72 0
-22 -97 0
-22 -178 0
-62 -72 0
-62 -97 0
-62 -178 0
-72 -97 0
-72 -178 0
-97 -178 0
5 12 44 80 93 106 182 190 191 195 198 205 0
-5 -12 0
-5 -44 0
-5 -80 0
-5 -93 0
-5 -106 0
-5 -182 0
-5 -190 0
-5 -191 0
-5 -195 0
-5 -198 0
-5 -205 0
-12 -44 0
-12 -80 0
-12 -93 0
-12 -106 0
-12 -182 0
-12 -190 0
-12 -191 0
-12 -195 0
-12 -198 0
-12 -205 0
-44 -80 0
-44 -93 0
-44 -106 0
-44 -182 0
-44 -190 0
-44 -191 0
-44 -195 0
-44 -198 0
-44 -205 0
-80 -93 0
-80 -106 0
-80 -182 0
-80 -190 0
-80 -191 0
-80 -195 0
-80 -198 0
-80 -205 0
-93 -106 0
-93 -182 0
-93 -190 0
-93 -191 0
-93 -195 0
-93 -198 0
-93 -205 0
-106 -182 0
-106 -190 0
-106 -191 0
-106 -195 0
-106 -198 0
-106 -205 0
-182 -190 0
-182 -191 0
-182 -195 0
-182 -198 0
-182 -205 0
-190 -191 0
-190 -195 0
-190 -198 0
-190 -205 0
-191 -195 0
-191 -198 0
-191 -205 0
-195 -198 0
-195 -205 0
-198 -205 0
40 46 55 65 116 128 0
-40 -46 0
-40 -55 0
-40 -65 0
-40 -116 0
-40 -128 0
-46 -55 0
-46 -65 0
-46 -116 0
-46 -128 0
-55 -65 0
-55 -116 0
-55 -128 0
-65 -116 0
-65 -128 0
-116 -128 0
15 51 83 91 209 0
-15 -51 0
-15 -83 0
-15 -91 0
-15 -209 0
-51 -83 0
-51 -91 0
-51 -209 0
-83 -91 0
-83 -209 0
-91 -209 0
19 92 137 167 172 0
-19 -92 0
-19 -137 0
-19 -167 0
-19 -172 0
-92 -137 0
-92 -167 0
-92 -172 0
-137 -167 0
-137 -172 0
-167 -172 0
6 21 41 73 89 117 132 152 181 194 195 208 0
-6 -21 0
-6 -41 0
-6 -73 0
-6 -89 0
-6 -117 0
-6 -132 0
-6 -152 0
-6 -181 0
-6 -194 0
-6 -195 0
-6 -208 0
-21 -41 0
-21 -73 0
-21 -89 0
-21 -117 0
-21 -132 0
-21 -152 0
-21 -181 0
-21 -194 0
-21 -195 0
-21 -208 0
-41 -73 0
-41 -89 0
-41 -117 0
-41 -132 0
-41 -152 0
-41 -181 0
-41 -194 0
-41 -195 0
-41 -208 0
-73 -89 0
-73 -117 0
-73 -132 0
-73 -152 0
-73 -181 0
-73 -194 0
-73 -195 0
-73 -208 0
-89 -117 0
-89 -132 0
-89 -152 0
-89 -181 0
-89 -194 0
-89 -195 0
-89 -208 0
-117 -132 0
-117 -152 0
-117 -181 0
-117 -194 0
-117 -195 0
-117 -208 0
-132 -152 0
-132 -181 0
-132 -194 0
-132 -195 0
-132 -208 0
-152 -181 0
-152 -194 0
-152 -195 0
-152 -208 0
-181 -194 0
-181 -195 0
-181 -208 0
-194 -195 0
-194 -208 0
-195 -208 0
5 18 27 38 43 55 101 134 139 163 175 179 184 188 0
-5 -18 0
-5 -27 0
-5 -38 0
-5 -43 0
-5 -55 0
-5 -101 0
-5 -134 0
-5 -139 0
-5 -163 0
-5 -175 0
-5 -179 0
-5 -184 0
-5 -188 0
-18 -27 0
-18 -38 0
-18 -43 0
-18 -55 0
-18 -101 0
-18 -134 0
-18 -139 0
-18 -163 0
-18 -175 0
-18 -179 0
-18 -184 0
-18 -188 0
-27 -38 0
-27 -43 0
-27 -55 0
-27 -101 0
-27 -134 0
-27 -139 0
-27 -163 0
-27 -175 0
-27 -179 0
-27 -184 0
-27 -188 0
-38 -43 0
-38 -55 0
-38 -101 0
-38 -134 0
-38 -139 0
-38 -163 0
-38 -175 0
-38 -179 0
-38 -184 0
-38 -188 0
-43 -55 0
-43 -101 0
-43 -134 0
-43 -139 0
-43 -163 0
-43 -175 0
-43 -179 0
-43 -184 0
-43 -188 0
-55 -101 0
-55 -134 0
-55 -139 0
-55 -163 0
-55 -175 0
-55 -179 0
-55 -184 0
-55 -188 0
-101 -134 0
-101 -139 0
-101 -163 0
-101 -175 0
-101 -179 0
-101 -184 0
-101 -188 0
-134 -139 0
-134 -163 0
-134 -175 0
-134 -179 0
-134 -184 0
-134 -188 0
-139 -163 0
-139 -175 0
-139 -179 0
-139 -184 0
-139 -188 0
-163 -175 0
-163 -179 0
-163 -184 0
-163 -188 0
-175 -179 0
-175 -184 0
-175 -188 0
-179 -184 0
-179 -188 0
-184 -188 0
8 13 18 68 85 165 202 0
-8 -13 0
-8 -18 0
-8 -68 0
-8 -85 0
-8 -165 0
-8 -202 0
-13 -18 0
-13 -68 0
-13 -85 0
-13 -165 0
-13 -202 0
-18 -68 0
-18 -85 0
-18 -165 0
-18 -202 0
-68 -85 0
-68 -165 0
-68 -202 0
-85 -165 0
-85 -202 0
-165 -202 0
7 148 151 153 163 174 186 193 201 0
-7 -148 0
-7 -151 0
-7 -153 0
-7 -163 0
-7 -174 0
-7 -186 0
-7 -193 0
-7 -201 0
-148 -151 0
-148 -153 0
-148 -163 0
-148 -174 0
-148 -186 0
-148 -193 0
-148 -201 0
-151 -153 0
-151 -163 0
-151 -174 0
-151 -186 0
-151 -193 0
-151 -201 0
-153 -163 0
-153 -174 0
-153 -186 0
-153 -193 0
-153 -201 0
-163 -174 0
-163 -186 0
-163 -193 0
-163 -201 0
-174 -186 0
-174 -193 0
-174 -201 0
-186 -193 0
-186 -201 0
-193 -201 0
1 80 87 90 98 130 148 171 206 0
-1 -80 0
-1 -87 0
-1 -90 0
-1 -98 0
-1 -130 0
-1 -148 0
-1 -171 0
-1 -206 0
-80 -87 0
-80 -90 0
-80 -98 0
-80 -130 0
-80 -148 0
-80 -171 0
-80 -206 0
-87 -90 0
-87 -98 0
-87 -130 0
-87 -148 0
-87 -171 0
-87 -206 0
-90 -98 0
-90 -130 0
-90 -148 0
-90 -171 0
-90 -206 0
-98 -130 0
-98 -148 0
-98 -171 0
-98 -206 0
-130 -148 0
-130 -171 0
-130 -206 0
-148 -171 0
-148 -206 0
-171 -206 0
59 91 98 154 162 0
-59 -91 0
-59 -98 0
-59 -154 0
-59 -162 0
-91 -98 0
-91 -154 0
-91 -162 0
-98 -154 0
-98 -162 0
-154 -162 0
52 88 192 0
-52 -88 0
-52 -192 0
-88 -192 0
59 68 77 191 208 0
-59 -68 0
-59 -77 0
-59 -191 0
-59 -208 0
-68 -77 0
-68 -191 0
-68 -208 0
-77 -191 0
-77 -208 0
-191 -208 0
1 21 70 72 84 87 114 128 139 152 158 176 0
-1 -21 0
-1 -70 0
-1 -72 0
-1 -84 0
-1 -87 0
-1 -114 0
-1 -128 0
-1 -139 0
-1 -152 0
-1 -158 0
-1 -176 0
-21 -70 0
-21 -72 0
-21 -84 0
-21 -87 0
-21 -114 0
-21 -128 0
-21 -139 0
-21 -152 0
-21 -158 0
-21 -176 0
-70 -72 0
-70 -84 0
-70 -87 0
-70 -114 0
-70 -128 0
-70 -139 0
-70 -152 0
-70 -158 0
-70 -176 0
-72 -84 0
-72 -87 0
-72 -114 0
-72 -128 0
-72 -139 0
-72 -152 0
-72 -158 0
-72 -176 0
-84 -87 0
-84 -114 0
-84 -128 0
-84 -139 0
-84 -152 0
-84 -158 0
-84 -176 0
-87 -114 0
-87 -128 0
-87 -139 0
-87 -152 0
-87 -158 0
-87 -176 0
-114 -128 0
-114 -139 0
-114 -152 0
-114 -158 0
-114 -176 0
-128 -139 0
-128 -152 0
-128 -158 0
-128 -176 0
-139 -152 0
-139 -158 0
-139 -176 0
-152 -158 0
-152 -176 0
-158 -176 0
10 66 67 151 166 177 190 197 0
-10 -66 0
-10 -67 0
-10 -151 0
-10 -166 0
-10 -177 0
-10 -190 0
-10 -197 0
-66 -67 0
-66 -151 0
-66 -166 0
-66 -177 0
-66 -190 0
-66 -197 0
-67 -151 0
-67 -166 0
-67 -177 0
-67 -190 0
-67 -197 0
-151 -166 0
-151 -177 0
-151 -190 0
-151 -197 0
-166 -177 0
-166 -190 0
-166 -197 0
-177 -190 0
-177 -197 0
-190 -197 0
103 109 124 156 184 187 0
-103 -109 0
-103 -124 0
-103 -156 0
-103 -184 0
-103 -187 0
-109 -124 0
-109 -156 0
-109 -184 0
-109 -187 0
-124 -156 0
-124 -184 0
-124 -187 0
-156 -184 0
-156 -187 0
-184 -187 0
37 75 78 133 169 0
-37 -75 0
-37 -78 0
-37 -133 0
-37 -169 0
-75 -78 0
-75 -133 0
-75 -169 0
-78 -133 0
-78 -169 0
-133 -169 0
10 11 109 164 0
-10 -11 0
-10 -109 0
-10 -164 0
-11 -109 0
-11 -164 0
-109 -164 0
51 64 92 122 127 155 186 0
-51 -64 0
-51 -92 0
-51 -122 0
-51 -127 0
-51 -155 0
-51 -186 0
-64 -92 0
-64 -122 0
-64 -127 0
-64 -155 0
-64 -186 0
-92 -122 0
-92 -127 0
-92 -155 0
-92 -186 0
-122 -127 0
-122 -155 0
-122 -186 0
-127 -155 0
-127 -186 0
-155 -186 0
29 57 135 167 0
-29 -57 0
-29 -135 0
-29 -167 0
-57 -135 0
-57 -167 0
-135 -167 0
94 120 145 170 179 189 202 0
-94 -120 0
-94 -145 0
-94 -170 0
-94 -179 0
-94 -189 0
-94 -202 0
-120 -145 0
-120 -170 0
-120 -179 0
-120 -189 0
-120 -202 0
-145 -170 0
-145 -179 0
-145 -189 0
-145 -202 0
-170 -179 0
-170 -189 0
-170 -202 0
-179 -189 0
-179 -202 0
-189 -202 0
63 75 86 192 196 0
-63 -75 0
-63 -86 0
-63 -192 0
-63 -196 0
-75 -86 0
-75 -192 0
-75 -196 0
-86 -192 0
-86 -196 0
-192 -196 0
17 21 44 135 162 197 0
-17 -21 0
-17 -44 0
-17 -135 0
-17 -162 0
-17 -197 0
-21 -44 0
-21 -135 0
-21 -162 0
-21 -197 0
-44 -135 0
-44 -162 0
-44 -197 0
-135 -162 0
-135 -197 0
-162 -197 0
41 109 127 206 0
-41 -109 0
-41 -127 0
-41 -206 0
-109 -127 0
-109 -206 0
-127 -206 0
16 67 106 133 140 173 189 209 0
-16 -67 0
-16 -106 0
-16 -133 0
-16 -140 0
-16 -173 0
-16 -189 0
-16 -209 0
-67 -106 0
-67 -133 0
-67 -140 0
-67 -173 0
-67 -189 0
-67 -209 0
-106 -133 0
-106 -140 0
-106 -173 0
-106 -189 0
-106 -209 0
-133 -140 0
-133 -173 0
-133 -189 0
-133 -209 0
-140 -173 0
-140 -189 0
-140 -209 0
-173 -189 0
-173 -209 0
-189 -209 0
13 23 96 143 154 196 200 0
-13 -23 0
-13 -96 0
-13 -143 0
-13 -154 0
-13 -196 0
-13 -200 0
-23 -96 0
-23 -143 0
-23 -154 0
-23 -196 0
-23 -200 0
-96 -143 0
-96 -154 0
-96 -196 0
-96 -200 0
-143 -154 0
-143 -196 0
-143 -200 0
-154 -196 0
-154 -200 0
-196 -200 0
17 57 87 108 123 153 199 0
-17 -57 0
-17 -87 0
-17 -108 0
-17 -123 0
-17 -153 0
-17 -199 0
-57 -87 0
-57 -108 0
-57 -123 0
-57 -153 0
-57 -199 0
-87 -108 0
-87 -123 0
-87 -153 0
-87 -199 0
-108 -123 0
-108 -153 0
-108 -199 0
-123 -153 0
-123 -199 0
-153 -199 0
12 14 31 116 142 193 205 207 0
-12 -14 0
-12 -31 0
-12 -116 0
-12 -142 0
-12 -193 0
-12 -205 0
-12 -207 0
-14 -31 0
-14 -116 0
-14 -142 0
-14 -193 0
-14 -205 0
-14 -207 0
-31 -116 0
-31 -142 0
-31 -193 0
-31 -205 0
-31 -207 0
-116 -142 0
-116 -193 0
-116 -205 0
-116 -207 0
-142 -193 0
-142 -205 0
-142 -207 0
-193 -205 0
-193 -207 0
-205 -207 0
3 16 111 134 142 146 174 183 0
-3 -16 0
-3 -111 0
-3 -134 0
-3 -142 0
-3 -146 0
-3 -174 0
-3 -183 0
-16 -111 0
-16 -134 0
-16 -142 0
-16 -146 0
-16 -174 0
-16 -183 0
-111 -134 0
-111 -142 0
-111 -146 0
-111 -174 0
-111 -183 0
-134 -142 0
-134 -146 0
-134 -174 0
-134 -183 0
-142 -146 0
-142 -174 0
-142 -183 0
-146 -174 0
-146 -183 0
-174 -183 0
32 42 53 85 126 147 164 165 167 0
-32 -42 0
-32 -53 0
-32 -85 0
-32 -126 0
-32 -147 0
-32 -164 0
-32 -165 0
-32 -167 0
-42 -53 0
-42 -85 0
-42 -126 0
-42 -147 0
-42 -164 0
-42 -165 0
-42 -167 0
-53 -85 0
-53 -126 0
-53 -147 0
-53 -164 0
-53 -165 0
-53 -167 0
-85 -126 0
-85 -147 0
-85 -164 0
-85 -165 0
-85 -167 0
-126 -147 0
-126 -164 0
-126 -165 0
-126 -167 0
-147 -164 0
-147 -165 0
-147 -167 0
-164 -165 0
-164 -167 0
-165 -167 0
3 25 52 63 98 99 118 149 169 0
-3 -25 0
-3 -52 0
-3 -63 0
-3 -98 0
-3 -99 0
-3 -118 0
-3 -149 0
-3 -169 0
-25 -52 0
-25 -63 0
-25 -98 0
-25 -99 0
-25 -118 0
-25 -149 0
-25 -169 0
-52 -63 0
-52 -98 0
-52 -99 0
-52 -118 0
-52 -149 0
-52 -169 0
-63 -98 0
-63 -99 0
-63 -118 0
-63 -149 0
-63 -169 0
-98 -99 0
-98 -118 0
-98 -149 0
-98 -169 0
-99 -118 0
-99 -149 0
-99 -169 0
-118 -149 0
-118 -169 0
-149 -169 0
82 84 86 125 132 155 160 187 0
-82 -84 0
-82 -86 0
-82 -125 0
-82 -132 0
-82 -155 0
-82 -160 0
-82 -187 0
-84 -86 0
-84 -125 0
-84 -132 0
-84 -155 0
-84 -160 0
-84 -187 0
-86 -125 0
-86 -132 0
-86 -155 0
-86 -160 0
-86 -187 0
-125 -132 0
-125 -155 0
-125 -160 0
-125 -187 0
-132 -155 0
-132 -160 0
-132 -187 0
-155 -160 0
-155 -187 0
-160 -187 0
